100
50 50
1 40 950
2 40 165
3 40 490
4 40 647
5 38 951
6 38 829
7 38 624
8 38 767
9 38 953
10 37 790
11 37 228
12 37 93
13 37 462
14 37 573
15 36 121
16 36 317
17 36 450
18 36 613
19 36 468
20 35 677
21 35 891
22 35 814
23 34 837
24 33 564
25 32 73
26 32 926
27 31 841
28 31 655
29 31 627
30 31 957
31 30 139
32 30 579
33 30 562
34 30 130
35 29 139
36 29 196
37 29 7
38 29 179
39 28 44
40 28 642
41 27 380
42 27 843
43 27 346
44 26 722
45 26 20
46 26 610
47 26 351
48 26 463
49 25 680
50 25 258
51 25 436
52 25 365
53 25 301
54 24 246
55 24 802
56 24 644
57 23 895
58 23 297
59 22 615
60 22 294
61 22 351
62 22 86
63 21 534
64 21 42
65 20 64
66 20 562
67 19 12
68 19 201
69 19 423
70 18 50
71 18 136
72 17 196
73 17 702
74 17 713
75 17 295
76 17 694
77 17 821
78 16 523
79 16 888
80 16 261
81 15 374
82 15 135
83 14 188
84 14 651
85 14 742
86 12 707
87 12 626
88 12 657
89 12 88
90 12 326
91 12 574
92 11 788
93 11 31
94 11 269
95 11 689
96 10 118
97 10 724
98 10 727
99 10 797
100 10 334
